! r2SCAN-3c OptTS Freq PAL8 SOSCF TightSCF

%pal
   nprocs 8
end

%scf
   MaxIter 150
end

%geom
  Calc_Hess true
  Recalc_Hess 5
end

* xyz -1 1
  C           0.00000000666167      0.00000008886288      0.04046499393628
  H           0.00000000370735      1.06589068717787      0.07667637306988
  H           0.92308835804890     -0.53294513621109      0.07667664267062
  H          -0.92308835022798     -0.53294513597691      0.07667664402052
  Cl         -0.00000001324723      0.00000027359454      2.29201035663396
  I          -0.00000000494272     -0.00000077744728     -2.52590501033126
*
