! r2SCAN-3c Opt Freq PAL8 TightSCF

%pal
   nprocs 8
end

%scf
   MaxIter 150
end

* xyz -1 1
  C       0.322915      0.186064     -0.329677
  H       0.413279      1.268730     -0.291283
  H       1.306816     -0.274687     -0.292163
  H      -0.287524     -0.167680      0.547872
  F      -0.638078     -0.370174      2.134345
  Cl     -0.376558     -0.217992     -1.911267
*
