! r2SCAN-3c OptTS Freq PAL8 SOSCF TightSCF

%pal
   nprocs 8
end

%scf
   MaxIter 150
end

%geom
  Calc_Hess true
  Recalc_Hess 5
end

* xyz -1 1
  C           0.10598431669346      0.06127900541319     -0.28514833126477
  H           0.16718343908677      1.12489598694895     -0.08532763266013
  H           1.05806969171987     -0.41688437823201     -0.08552881463198
  H          -0.66750538958849     -0.38574725114313      0.33610116148744
  F          -0.43202445171532     -0.24992340605901      2.20945480124451
  Cl         -0.23170760619629     -0.13361995692800     -2.04323118417507
*
