! XTB2 Opt Freq PAL8

%geom
  MaxIter 500
end

* xyz -1 1
  C       0.000034      0.000017      0.331740
  H      -0.000000      1.027062     -0.005342
  H       0.889464     -0.513539     -0.005342
  H      -0.889492     -0.513551     -0.005360
  Br     -0.000005     -0.000006      2.277276
  Cl     -0.000000      0.000000     -2.476264
*
