! XTB2 Opt Freq PAL8

%geom
  MaxIter 500
end

* xyz -1 1
  C      -0.008379      0.153484      0.079963
  H      -0.065529      1.193490      0.290731
  H       0.928052     -0.345073      0.210435
  H      -0.883751     -0.445225      0.213168
  F      -0.018572      0.389070      2.158514
  I      -0.021301      0.320687     -2.347663
*
