! XTB2 Opt Freq PAL8

* xyz -1 1
  C       0.000094     -0.500025     -0.273526
  H      -0.000442      0.212173      0.583045
  H       0.887355     -1.124279     -0.246189
  H      -0.886340     -1.125473     -0.246439
  F      -0.000313      0.785459      2.150238
  I      -0.000242      0.430394     -2.242854
*
