! XTB2 Opt Freq PAL8

%geom
  MaxIter 500
end

* xyz -1 1
  C       0.026557     -0.486222     -0.270617
  H      -0.012136      0.225650      0.583358
  H       0.947058     -1.060728     -0.243048
  H      -0.824075     -1.159863     -0.240765
  F      -0.040082      0.774560      2.158973
  I      -0.027843      0.440170     -2.242007
*
