! XTB2 Opt Freq PAL8

%geom
  MaxIter 500
end

* xyz -1 1
  C      -0.324333      0.187200      0.330266
  H      -0.415904      1.269696      0.287629
  H       0.290989     -0.167878     -0.542195
  H      -1.307367     -0.274839      0.287585
  Cl      0.364847     -0.210571      1.918171
  F       0.633323     -0.365531     -2.134160
*
