! XTB2 Opt Freq PAL8

%geom
  MaxIter 500
end

* xyz -1 1
  C       0.102485     -0.059215      0.020067
  H       0.090397      1.003199     -0.111683
  H       1.015382     -0.586426     -0.119625
  H      -0.823757     -0.579751     -0.111641
  Cl      0.127537     -0.073619      2.089688
  F       0.246401     -0.142266     -2.006742
*
