! r2SCAN-3c Opt Freq PAL8 TightSCF

%pal
   nprocs 8
end

%scf
   MaxIter 150
end

* xyz -1 1
  C       0.000342      0.000078      0.397742
  H      -0.000077      1.027377      0.054730
  H       0.889638     -0.513738      0.054749
  H      -0.890123     -0.513927      0.054622
  Cl     -0.000068     -0.000067      2.177736
  Br      0.000008      0.000006     -2.665227
*
