! XTB2 OptTS Freq PAL8

%geom
  Calc_Hess true
  Recalc_Hess 5
  MaxIter 100
end

* xyz -1 1
C    0.000000   0.000000   0.073200
H    0.000000   1.085000   0.000000
H    0.939638  -0.542500   0.000000
H   -0.939638  -0.542500   0.000000
Cl   0.000000   0.000000   2.565200
I    0.000000   0.000000  -2.601800
*
