! XTB2 Opt Freq PAL8

%geom
  MaxIter 500
end

* xyz -1 1
  C      -0.000027     -0.000446      0.317022
  H      -0.000000      1.031139      0.002822
  H       0.892677     -0.515401      0.002942
  H      -0.892652     -0.515386      0.002951
  I       0.000003      0.000018      2.519140
  Br     -0.000001     -0.000006     -2.627773
*
