! XTB2 Opt Freq PAL8

%geom
  MaxIter 500
end

* xyz -1 1
  C       0.000070      0.000443     -0.377751
  H       0.000001      1.030445     -0.055215
  H       0.892732     -0.515380     -0.055084
  H      -0.892803     -0.515422     -0.055057
  I       0.000001      0.000008      2.773980
  Br     -0.000002     -0.000012     -2.349976
*
