! B3LYP def2-SVP TightSCF IRC

%pal
  nprocs 1
end

%moinp "../TS_search/sn2.gbw"

%irc
  Direction both
  MaxIter 70
  InitHess read
  Hess_Filename "../TS_search/sn2.hess"
end

* xyzfile -1 1 ../TS_search/sn2.xyz
