! r2SCAN-3c Opt Freq PAL8 TightSCF

%pal
   nprocs 8
end

%scf
   MaxIter 150
end

* xyz -1 1
  C       0.104013     -0.063478      0.017156
  H       0.098855      0.998997     -0.112657
  H       1.013100     -0.597467     -0.122300
  H      -0.826120     -0.578180     -0.109982
  Cl      0.134047     -0.077149      2.089278
  F       0.241954     -0.141627     -2.006749
*
