! r2SCAN-3c Opt Freq PAL8 TightSCF

%pal
   nprocs 8
end

%scf
   MaxIter 150
end

* xyz -1 1
  C      -0.327140      0.191498      0.331640
  H      -0.422213      1.273864      0.295509
  H       0.284691     -0.158307     -0.546623
  H      -1.309069     -0.273406      0.292821
  Cl      0.373726     -0.212925      1.912330
  F       0.634156     -0.361820     -2.133062
*
