! r2SCAN-3c OptTS Freq PAL8 SOSCF TightSCF

%pal
   nprocs 8
end

%scf
   MaxIter 150
end

%geom
  Calc_Hess true
  Recalc_Hess 5
end

* xyz -1 1
  C          -0.10598354102032      0.06128209085445      0.28514796618143
  H          -0.16717015851450      1.12489854125516      0.08532061070568
  H           0.66750078233877     -0.38575718044728     -0.33609886349263
  H          -1.05807459004354     -0.41687131828166      0.08553161899704
  Cl          0.23170640126700     -0.13360983142978      2.04323197962231
  F           0.43202110597258     -0.24994230195088     -2.20945331201384
*
