! r2SCAN-3c Opt Freq PAL8 TightSCF

%pal
   nprocs 8
end

%scf
   MaxIter 150
end

* xyz -1 1
  C      -0.000263     -0.000268      0.378005
  H       0.000029      1.031131      0.055165
  H       0.892887     -0.515463      0.055197
  H      -0.892559     -0.515306      0.055280
  Br      0.000019      0.000018      2.350096
  I       0.000003      0.000003     -2.774278
*
