! r2SCAN-3c OptTS Freq PAL8 SOSCF TightSCF

%pal
   nprocs 8
end

%scf
   MaxIter 150
end

%geom
  Calc_Hess true
  Recalc_Hess 5
end

* xyz -1 1
  C           0.00000000462331      0.00000001932483      0.03047046111233
  H           0.00000000580859      1.06664897686047      0.02486792140707
  H           0.92374509705202     -0.53332445743258      0.02486780773728
  H          -0.92374508720114     -0.53332445844262      0.02486780811659
  Br         -0.00000000444116     -0.00000025027761      2.44317217743260
  I          -0.00000001584162      0.00000016996751     -2.59724617580586
*
