! r2SCAN-3c Opt Freq PAL8 TightSCF

%pal
   nprocs 8
end

%scf
   MaxIter 150
end

* xyz -1 1
  C       0.000124      0.000116      0.330685
  H       0.000057      1.027249     -0.006451
  H       0.889648     -0.513549     -0.006452
  H      -0.889586     -0.513580     -0.006472
  Br      0.000056      0.000054      2.276458
  Cl     -0.000010     -0.000011     -2.470696
*
