! XTB2 Opt Freq PAL8

%geom
  MaxIter 500
end

* xyz -1 1
  C      -0.108424     -0.060240      0.021290
  H      -0.069515      1.003776      0.147168
  H       0.815863     -0.588727      0.147302
  H      -1.021474     -0.567814      0.203417
  F      -0.312867     -0.174248      2.077295
  Br     -0.206718     -0.115106     -2.216211
*
