! B3LYP def2-SVP OptTS Freq

%pal
  nprocs 1
end

%geom
  Calc_Hess true
  Recalc_Hess 5
end

* xyz -1 1
C   0.000000   0.000000   0.000000
H   0.000000   1.080000   0.000000
H   0.935000  -0.540000   0.000000
H  -0.935000  -0.540000   0.000000
F   0.000000   0.000000   1.900000
F   0.000000   0.000000  -1.900000
*
