! XTB2 Opt Freq PAL8

%geom
  MaxIter 500
end

* xyz -1 1
  C      -0.018151     -0.486396      0.270915
  H       0.008411      0.225515     -0.583489
  H       0.844347     -1.144807      0.242013
  H      -0.928271     -1.077213      0.243146
  I       0.018517      0.442047      2.241752
  F       0.027748      0.773789     -2.159464
*
