! XTB2 Opt Freq PAL8

%geom
  MaxIter 500
end

* xyz -1 1
  C       0.005712      0.153547     -0.080042
  H       0.044672      1.194265     -0.291472
  H       0.891589     -0.429723     -0.212283
  H      -0.921695     -0.361518     -0.210822
  I       0.014036      0.322526      2.347465
  F       0.013084      0.387969     -2.158760
*
