! r2SCAN-3c Opt Freq PAL8 TightSCF

%pal
   nprocs 8
end

%scf
   MaxIter 150
end

* xyz -1 1
  C      -0.000134     -0.000090     -0.431793
  H      -0.000072      1.028059     -0.092401
  H       0.890318     -0.514135     -0.092383
  H      -0.890411     -0.514103     -0.092424
  I       0.000008      0.000004      2.791114
  Cl     -0.000055     -0.000073     -2.216742
*
