! r2SCAN-3c OptTS Freq PAL8 SOSCF TightSCF

%pal
   nprocs 8
end

%scf
   MaxIter 150
end

%geom
  Calc_Hess true
  Recalc_Hess 5
end

* xyz -1 1
  C          -0.00000000671916      0.00000008432194     -0.04046499393388
  H          -0.00000000461310      1.06589068538536     -0.07667637287066
  H           0.92308834991152     -0.53294513817774     -0.07667664415738
  H          -0.92308835830794     -0.53294513769852     -0.07667664273016
  I           0.00000000696536     -0.00000077531996      2.52590501032809
  Cl          0.00000001276332      0.00000028148893     -2.29201035663601
*
