! XTB2 Opt Freq PAL8

%geom
  MaxIter 500
end

* xyz -1 1
  C      -0.000305      0.000088      0.396799
  H       0.000012      1.027593      0.054592
  H       0.890123     -0.513905      0.054513
  H      -0.889842     -0.513757      0.054617
  Cl      0.000015     -0.000002      2.178518
  Br     -0.000002      0.000001     -2.664652
*
