! XTB2 Opt Freq PAL8

%geom
  MaxIter 500
end

* xyz -1 1
  C       0.000366     -0.000167     -0.330534
  H      -0.000015      1.027390      0.006724
  H       0.889450     -0.513531      0.006624
  H      -0.889794     -0.513712      0.006735
  Cl     -0.000001      0.000001      2.470006
  Br     -0.000006      0.000001     -2.276260
*
