! r2SCAN-3c Opt Freq PAL8 TightSCF

%pal
   nprocs 8
end

%scf
   MaxIter 150
end

* xyz -1 1
  C       0.344201      0.197788     -0.304970
  H       0.436049      1.279724     -0.254690
  H       1.328645     -0.260395     -0.256450
  H      -0.287491     -0.168792      0.539137
  F      -0.608068     -0.351381      2.158991
  Br     -0.346324     -0.200355     -2.089318
*
