! r2SCAN-3c Opt Freq PAL8 TightSCF

%pal
   nprocs 8
end

%scf
   MaxIter 150
end

* xyz -1 1
  C      -0.101652     -0.057820      0.012851
  H      -0.076654      1.006510      0.140140
  H       0.830360     -0.572025      0.140950
  H      -1.005133     -0.576679      0.213866
  F      -0.295863     -0.170627      2.082907
  Br     -0.218069     -0.125948     -2.213975
*
