! r2SCAN-3c OptTS Freq PAL8 SOSCF TightSCF

%pal
   nprocs 8
end

%scf
   MaxIter 150
end

%geom
  Calc_Hess true
  Recalc_Hess 5
end

* xyz -1 1
  C           0.13491586353470      0.07788980946056     -0.24303820275197
  H           0.20835089440165      1.14844752554684     -0.08592712561819
  H           1.09875377156223     -0.39381434982914     -0.08593251794902
  H          -0.61219899607151     -0.35344793901243      0.42342627796492
  F          -0.52684656314038     -0.30416223835814      2.23320592510844
  Br         -0.30297497028669     -0.17491280780769     -2.15701435675418
*
