! XTB2 Opt Freq PAL8

%geom
  MaxIter 500
end

* xyz -1 1
  C      -0.355742      0.198009      0.303536
  H      -0.466270      1.278199      0.251976
  H       0.285459     -0.159223     -0.538025
  H      -1.332409     -0.276986      0.252169
  Br      0.336400     -0.187311      2.089361
  F       0.629372     -0.350431     -2.148195
*
