! XTB2 Opt Freq PAL8

* xyz -1 1
  C       0.109622     -0.066748     -0.026464
  H       0.095402      0.998127     -0.147430
  H       1.008948     -0.596583     -0.212215
  H      -0.828291     -0.573179     -0.144271
  Br      0.221389     -0.127620      2.213974
  F       0.297141     -0.172407     -2.079429
*
