! XTB2 Opt Freq PAL8

* xyz -1 1
  C      -0.352293      0.207123      0.308143
  H      -0.452816      1.288436      0.267091
  H       0.279689     -0.150217     -0.540630
  H      -1.332718     -0.258721      0.259936
  Br      0.344277     -0.197280      2.089021
  F       0.609651     -0.350930     -2.157165
*
