! XTB2 Opt Freq PAL8

* xyz -1 1
  C       0.000140      0.000136     -0.275237
  H       0.000063      1.026182      0.055394
  H       0.888726     -0.513008      0.055406
  H      -0.888660     -0.513045      0.055433
  Cl     -0.000009     -0.000010      2.496538
  I       0.000053      0.000051     -2.448380
*
