! XTB2 Opt Freq PAL8

%geom
  MaxIter 500
end

* xyz -1 1
  C       0.000021     -0.000326     -0.277360
  H       0.000000      1.026004      0.053841
  H       0.888331     -0.512899      0.053726
  H      -0.888350     -0.512910      0.053734
  Cl      0.000001     -0.000005      2.504455
  I      -0.000002      0.000002     -2.449790
*
