! XTB2 Opt Freq PAL8

%geom
  MaxIter 500
end

* xyz 0 1
  C       0.078329      0.094335     -0.052174
  C       1.323297      0.035751     -0.511888
  C       2.174997      1.208027     -0.486209
  C       3.430805      1.128727     -0.060822
  C       2.307714      0.903798      2.430166
  C       1.184036      0.219103      2.416343
  H      -0.513936     -0.783050      0.139552
  H      -0.369706      1.043495      0.191527
  H       1.794711     -0.913545     -0.729669
  H       1.699542      2.168038     -0.633919
  H       4.018860      2.000543      0.165705
  H       3.889512      0.170318      0.124571
  H       0.232215      0.715774      2.444323
  H       1.195079     -0.851157      2.355064
  H       3.306881      0.497855      2.420975
  F       2.314938      2.248485      2.473984
*
