! XTB2 OptTS Freq PAL8

%geom
  Calc_Hess true
  Recalc_Hess 3
  MaxIter 200
  Trust -0.1
end

* xyz -1 1
C    0.000000   0.000000   0.169440
H    0.000000   1.085000   0.000000
H    0.939638  -0.542500   0.000000
H   -0.939638  -0.542500   0.000000
F    0.000000   0.000000   2.073840
Br   0.000000   0.000000  -2.158560
*
