! XTB2 IRC PAL8

%irc
  Direction both
  MaxIter 20
  InitHess read
  Hess_Filename "../TS_search/sn2_cl_i.hess"
end

* xyzfile -1 1 ../TS_search/sn2_cl_i.xyz
