! r2SCAN-3c OptTS Freq PAL8 SOSCF TightSCF

%pal
   nprocs 8
end

%scf
   MaxIter 150
end

%geom
  Calc_Hess true
  Recalc_Hess 5
end

* xyz -1 1
  C          -0.13491579283557      0.07788993835694      0.24303820010253
  H          -0.20834985197402      1.14844771877313      0.08592707525114
  H           0.61219866181706     -0.35344852328472     -0.42342627830764
  H          -1.09875413324463     -0.39381334616118      0.08593256011404
  Br          0.30297483970415     -0.17491303166467      2.15701435974265
  F           0.52684627653301     -0.30416275601949     -2.23320591690271
*
