! XTB2 Opt Freq PAL8

%geom
  MaxIter 500
end

* xyz -1 1
  C      -0.102486     -0.059213     -0.020067
  H      -0.090392      1.003200      0.111683
  H       0.823754     -0.579755      0.111642
  H      -1.015385     -0.586420      0.119625
  F      -0.246402     -0.142265      2.006742
  Cl     -0.127538     -0.073619     -2.089688
*
