! XTB2 Opt Freq PAL8

* xyz -1 1
  C      -0.099062     -0.056443     -0.026535
  H      -0.084927      1.005793      0.108120
  H       0.826647     -0.577387      0.108504
  H      -1.011421     -0.581592      0.124259
  F      -0.239811     -0.138474      2.009748
  Cl     -0.132276     -0.076159     -2.089285
*
