! XTB2 Opt Freq PAL8

%geom
  MaxIter 500
end

* xyz -1 1
  C      -0.000075      0.000416      0.377808
  H      -0.000001      1.030522      0.055228
  H       0.892842     -0.515448      0.055079
  H      -0.892766     -0.515404      0.055107
  Br      0.000002     -0.000009      2.349995
  I      -0.000001      0.000007     -2.774113
*
