! XTB2 Opt Freq PAL8

* xyz -1 1
  C       0.000055      0.000044     -0.315127
  H      -0.000027      1.031215     -0.002254
  H       0.893072     -0.515658     -0.002251
  H      -0.893198     -0.515699     -0.002238
  Br     -0.000003     -0.000003      2.624879
  I      -0.000015     -0.000014     -2.520475
*
