! XTB2 Opt Freq PAL8

%geom
  MaxIter 500
end

* xyz -1 1
  C       0.000040     -0.000490     -0.317150
  H      -0.000000      1.031140     -0.002861
  H       0.892614     -0.515362     -0.003003
  H      -0.892651     -0.515383     -0.002990
  Br      0.000000     -0.000005      2.627969
  I      -0.000003      0.000016     -2.519068
*
