! XTB2 Opt Freq PAL8

%geom
  MaxIter 500
end

* xyz 0 1
  C       0.239372      0.209686      0.430897
  C       1.355277      0.090238     -0.531318
  C       2.149945      1.194589     -0.512673
  C       3.277579      1.029334      0.425313
  C       2.456704      0.923240      1.776862
  C       1.102996      0.163995      1.756768
  H      -0.483497     -0.605707      0.439585
  H      -0.278021      1.164656      0.356682
  H       1.829897     -0.885136     -0.575520
  H       1.668027      2.166743     -0.485298
  H       3.987661      1.854854      0.473581
  H       3.815780      0.091973      0.278589
  H       0.480891      0.531707      2.574177
  H       1.320195     -0.887302      1.962632
  H       3.094279      0.451443      2.525676
  I       2.154486      2.935037      2.568806
*
