! XTB2 Opt Freq PAL8

%geom
  MaxIter 500
end

* xyz 0 1
  C       0.241014      0.177608      0.424175
  C       1.356815      0.083983     -0.539417
  C       2.126745      1.206030     -0.513804
  C       3.267721      1.052002      0.410612
  C       2.467250      0.910584      1.775840
  C       1.088201      0.188307      1.766128
  H      -0.450578     -0.663882      0.440025
  H      -0.309552      1.111627      0.334556
  H       1.854074     -0.879448     -0.589928
  H       1.627904      2.167931     -0.474425
  H       3.950436      1.898463      0.472991
  H       3.827588      0.131593      0.247226
  H       0.468931      0.644161      2.539969
  H       1.264069     -0.849441      2.053788
  H       3.115140      0.401563      2.494604
  Cl      2.252872      2.557889      2.452313
*
