! XTB2 Opt Freq PAL8

%geom
  MaxIter 500
end

* xyz 0 1
  C       0.084888      0.152823     -0.013611
  C       1.317154      0.068997     -0.502553
  C       2.197125      1.220496     -0.474268
  C       3.455229      1.108882     -0.064739
  C       2.294449      0.878777      2.465780
  C       1.192286      0.155045      2.417105
  H      -0.528541     -0.710727      0.174292
  H      -0.329004      1.109758      0.258555
  H       1.758843     -0.887361     -0.749239
  H       1.741484      2.191865     -0.610238
  H       4.067336      1.964679      0.158930
  H       3.893209      0.139151      0.110229
  H       0.218224      0.599853      2.503115
  H       1.241676     -0.909347      2.279669
  H       3.289051      0.472487      2.394224
  Cl      2.262570      2.590865      2.632902
*
