! r2SCAN-3c Opt Freq PAL8 TightSCF

%pal
   nprocs 8
end

%scf
   MaxIter 150
end

* xyz -1 1
  C      -0.000060     -0.000072     -0.377855
  H       0.000039      1.030651     -0.054190
  H       0.892534     -0.515242     -0.054197
  H      -0.892369     -0.515192     -0.054210
  I       0.000005      0.000005      2.770083
  Br      0.000018      0.000018     -2.349070
*
