! r2SCAN-3c Opt Freq PAL8 TightSCF

%pal
   nprocs 8
end

%scf
   MaxIter 150
end

* xyz -1 1
  C      -0.000088     -0.000182      0.315333
  H      -0.000036      1.031287      0.002302
  H       0.893023     -0.515642      0.002339
  H      -0.893046     -0.515614      0.002371
  I      -0.000014     -0.000012      2.520489
  Br     -0.000004     -0.000004     -2.625396
*
