! r2SCAN-3c OptTS Freq PAL8 SOSCF TightSCF

%pal
   nprocs 8
end

%scf
   MaxIter 150
end

%geom
  Calc_Hess true
  Recalc_Hess 5
end

* xyz -1 1
  C          -0.00000000325590      0.00000001850808     -0.03047046111268
  H          -0.00000000433379      1.06664897617008     -0.02486792030703
  H           0.92374508848962     -0.53332445921278     -0.02486780431337
  H          -0.92374509560833     -0.53332445831586     -0.02486781264061
  I           0.00000000194213      0.00000017162600      2.59724617580632
  Br          0.00000001276627     -0.00000024877552     -2.44317217743262
*
