! r2SCAN-3c Opt Freq PAL8 TightSCF

%pal
   nprocs 8
end

%scf
   MaxIter 150
end

* xyz -1 1
  C       0.000007      0.183295      0.372103
  H       0.000066      1.253018      0.221952
  H       0.912392     -0.356720      0.227036
  H      -0.912395     -0.356666      0.227074
  F      -0.000061      0.306127      2.001640
  I      -0.000122      0.292696     -2.423039
*
