! r2SCAN-3c OptTS Freq PAL8 SOSCF TightSCF

%pal
   nprocs 8
end

%scf
   MaxIter 150
end

%geom
  Calc_Hess true
  Recalc_Hess 5
end

* xyz -1 1
  C           0.00006355330275     -0.18373201865310     -0.19169463346018
  H          -0.00023147770381      0.66331377301239      0.49351508675082
  H           0.88772098015053     -0.78637313061677     -0.04727222545442
  H          -0.88716608179981     -0.78700015006364     -0.04726131953774
  F          -0.00023168453199      0.69501650610188      2.28522196715754
  I          -0.00015528941768      0.39877502021924     -2.31698887545601
*
