! r2SCAN-3c Opt Freq PAL8 TightSCF

%pal
   nprocs 8
end

%scf
   MaxIter 150
end

* xyz -1 1
  C       0.000118      0.186883     -0.375260
  H       0.000809      1.255702     -0.222199
  H       0.912224     -0.354130     -0.227897
  H      -0.912668     -0.352968     -0.227885
  I       0.000181      0.294125      2.423011
  F       0.000154      0.308406     -2.001143
*
