! r2SCAN-3c Opt Freq PAL8 TightSCF

%pal
   nprocs 8
end

%scf
   MaxIter 150
end

* xyz -1 1
  C      -0.000288     -0.503826      0.274131
  H      -0.000009      0.207464     -0.583414
  H       0.886294     -1.129123      0.247883
  H      -0.887409     -1.128366      0.247975
  I       0.000217      0.429819      2.241736
  F       0.000375      0.786014     -2.147977
*
