! r2SCAN-3c OptTS Freq PAL8 SOSCF TightSCF

%pal
   nprocs 8
end

%scf
   MaxIter 150
end

%geom
  Calc_Hess true
  Recalc_Hess 5
end

* xyz -1 1
  C          -0.00009380654851     -0.18373776508783      0.19168984425687
  H           0.00034172277502      0.66332575360708     -0.49349789131661
  H           0.88703380797329     -0.78715150758551      0.04723813988585
  H          -0.88785311777276     -0.78622568202426      0.04725452864327
  I           0.00022962671874      0.39871402809579      2.31699926360535
  F           0.00034176685423      0.69507517299472     -2.28520388507473
*
