! XTB2 Opt Freq PAL8

%geom
  MaxIter 500
end

* xyz -1 1
  C      -0.000012     -0.000323      0.277333
  H      -0.000000      1.026004     -0.053863
  H       0.888348     -0.512909     -0.053754
  H      -0.888337     -0.512902     -0.053748
  I       0.000002      0.000003      2.449784
  Cl     -0.000001     -0.000006     -2.504358
*
