! XTB2 Opt Freq PAL8

* xyz -1 1
  C       0.000157      0.000138      0.274775
  H       0.000068      1.026118     -0.055596
  H       0.888664     -0.512963     -0.055603
  H      -0.888592     -0.513001     -0.055635
  I       0.000057      0.000055      2.448267
  Cl     -0.000009     -0.000010     -2.494779
*
