! XTB2 Opt Freq PAL8

%geom
  MaxIter 500
end

* xyz -1 1
  C      -0.000010     -0.000036     -0.432890
  H      -0.000000      1.028169     -0.093385
  H       0.890351     -0.514012     -0.093390
  H      -0.890345     -0.514005     -0.093391
  I       0.000002      0.000011      2.796040
  Cl      0.000001      0.000006     -2.217577
*
